
  22    4
  10   10   10   10

   0   0   0   0   0   2 2 3 
   8  10  10  10  10   4 8 7 6 4 
  10  10  10  10  10   4 12 10 9 8 
   5  10  10  10  10   2 10 5 
   9  10  10  10  10   3 16 12 9 
   4  10  10  10  10   3 16 12 9 
   9  10  10  10  10   2 16 9 
   6  10  10  10  10   3 17 16 11 
   6  10  10  10  10   2 17 11 
   6  10  10  10  10   3 17 16 14 
   9  10  10  10  10   2 15 13 
   9  10  10  10  10   2 17 13 
   7  10  10  10  10   3 19 18 14 
   1  10  10  10  10   2 21 20 
   6  10  10  10  10   2 19 18 
   2  10  10  10  10   2 19 18 
  10  10  10  10  10   1 18 
   9  10  10  10  10   1 22
   3  10  10  10  10   1 22
  10  10  10  10  10   1 22
   3  10  10  10  10   1 22
   0   0   0   0   0   0 
